Minimize
	value: tt

Subject to
tt + 1024 s_1_1 > 0.0
tt - t_1_1 - 1036.495047 s_1_1 + 12.495047 s_1_8 > -1012.795800
tt + 1024 s_2_1 > 0.0
tt - t_2_1 - 1036.706348 s_2_1 + 12.706348 s_2_8 > -1014.977917
tt + 1024 s_1_2 > 0.0
tt - t_1_2 - 1030.247524 s_1_2 + 6.247524 s_1_7 > -1012.699278
tt + 1024 s_2_2 > 0.0
tt - t_2_2 - 1030.353174 s_2_2 + 6.353174 s_2_7 > -1014.776978
tt + 1024 s_1_3 > 0.0
tt - t_1_3 - 1042.742571 s_1_3 + 18.742571 s_1_8 > -1022.340833
tt + 1024 s_2_3 > 0.0
tt - t_2_3 - 1043.059522 s_2_3 + 19.059522 s_2_8 > -1022.091633
tt + 1024 s_1_4 > 0.0
tt - t_1_4 - 1030.247524 s_1_4 + 6.247524 s_1_7 > -1021.482950
tt + 1024 s_2_4 > 0.0
tt - t_2_4 - 1030.353174 s_2_4 + 6.353174 s_2_7 > -1021.107567
tt + 1024 s_1_5 > 0.0
tt - t_1_5 - 1033.371286 s_1_5 + 9.371286 s_1_8 > -1018.621800
tt + 1024 s_2_5 > 0.0
tt - t_2_5 - 1033.529761 s_2_5 + 9.529761 s_2_8 > -1019.371867
tt + 1024 s_1_6 > 0.0
tt - t_1_6 - 1136.455427 s_1_6 + 112.455427 s_1_4 > -1022.984400
tt + 1024 s_2_6 > 0.0
tt - t_2_6 - 1138.357131 s_2_6 + 114.357131 s_2_4 > -1022.295375
tt + 1024 s_1_7 > 0.0
tt - t_1_7 - 1024.000000 s_1_7 > -1008.725814
tt + 1024 s_2_7 > 0.0
tt - t_2_7 - 1024.000000 s_2_7 > -1017.175367
tt + 1024 s_1_8 > 0.0
tt - t_1_8 - 1024.000000 s_1_8 > -1009.034000
tt + 1024 s_2_8 > 0.0
tt - t_2_8 - 1024.000000 s_2_8 > -1017.642300
s_1_1 + s_2_1  = 1
s_1_2 + s_2_2  = 1
s_1_3 + s_2_3  = 1
s_1_4 + s_2_4  = 1
s_1_5 + s_2_5  = 1
s_1_6 + s_2_6  = 1
s_1_7 + s_2_7  = 1
s_1_8 + s_2_8  = 1
s_1_1 + s_1_2 + 1024 r_1_1_2 >= 2
- s_1_1 - s_1_2 - 1024 r_1_1_2 >= -1025
t_1_1 - t_1_2 - 1024.000000 u_1_1_2 - 6.247524 s_1_2 + 6.247524 s_1_7 + 2048.000000 r_1_1_2 > -1012.699278
s_2_1 + s_2_2 + 1024 r_2_1_2 >= 2
- s_2_1 - s_2_2 - 1024 r_2_1_2 >= -1025
t_2_1 - t_2_2 - 1024.000000 u_2_1_2 - 6.353174 s_2_2 + 6.353174 s_2_7 + 2048.000000 r_2_1_2 > -1014.776978
s_1_1 + s_1_3 + 1024 r_1_1_3 >= 2
- s_1_1 - s_1_3 - 1024 r_1_1_3 >= -1025
t_1_1 - t_1_3 - 1024.000000 u_1_1_3 - 9.371286 s_1_3 + 9.371286 s_1_8 + 2048.000000 r_1_1_3 > -1022.340833
s_2_1 + s_2_3 + 1024 r_2_1_3 >= 2
- s_2_1 - s_2_3 - 1024 r_2_1_3 >= -1025
t_2_1 - t_2_3 - 1024.000000 u_2_1_3 - 9.529761 s_2_3 + 9.529761 s_2_8 + 2048.000000 r_2_1_3 > -1022.091633
s_1_1 + s_1_4 + 1024 r_1_1_4 >= 2
- s_1_1 - s_1_4 - 1024 r_1_1_4 >= -1025
t_1_1 - t_1_4 - 1024.000000 u_1_1_4 - 6.247524 s_1_4 + 6.247524 s_1_7 + 2048.000000 r_1_1_4 > -1021.482950
s_2_1 + s_2_4 + 1024 r_2_1_4 >= 2
- s_2_1 - s_2_4 - 1024 r_2_1_4 >= -1025
t_2_1 - t_2_4 - 1024.000000 u_2_1_4 - 6.353174 s_2_4 + 6.353174 s_2_7 + 2048.000000 r_2_1_4 > -1021.107567
s_1_1 + s_1_5 + 1024 r_1_1_5 >= 2
- s_1_1 - s_1_5 - 1024 r_1_1_5 >= -1025
t_1_1 - t_1_5 - 1024.000000 u_1_1_5 - 9.371286 s_1_5 + 9.371286 s_1_8 + 2048.000000 r_1_1_5 > -1018.621800
s_2_1 + s_2_5 + 1024 r_2_1_5 >= 2
- s_2_1 - s_2_5 - 1024 r_2_1_5 >= -1025
t_2_1 - t_2_5 - 1024.000000 u_2_1_5 - 9.529761 s_2_5 + 9.529761 s_2_8 + 2048.000000 r_2_1_5 > -1019.371867
t_1_6 - t_1_1 - 17.451724 s_1_1 + 6.247524 s_1_8 > 0.0
t_1_6 - t_2_1 - 15.375257 s_2_1 + 6.353174 s_2_8 > 0.0
t_2_6 - t_1_1 - 17.451724 s_1_1 + 6.247524 s_1_8 > 0.0
t_2_6 - t_2_1 - 15.375257 s_2_1 + 6.353174 s_2_8 > 0.0
t_1_1 - t_1_7 - 1024.000000 s_1_7 > -1008.725814
t_1_1 - t_2_7 - 1024.000000 s_2_7 > -1017.175367
t_2_1 - t_1_7 - 1024.000000 s_1_7 > -1008.725814
t_2_1 - t_2_7 - 1024.000000 s_2_7 > -1017.175367
t_1_1 - t_1_8 - 1024.000000 s_1_8 > -1009.034000
t_1_1 - t_2_8 - 1024.000000 s_2_8 > -1017.642300
t_2_1 - t_1_8 - 1024.000000 s_1_8 > -1009.034000
t_2_1 - t_2_8 - 1024.000000 s_2_8 > -1017.642300
s_1_2 + s_1_1 + 1024 r_1_1_2 >= 2
- s_1_2 - s_1_1 - 1024 r_1_1_2 >= -1025
t_1_2 - t_1_1 + 1024.000000 u_1_1_2 - 6.247524 s_1_1 + 6.247524 s_1_8 + 2048.000000 r_1_1_2 > 11.204200
s_2_2 + s_2_1 + 1024 r_2_1_2 >= 2
- s_2_2 - s_2_1 - 1024 r_2_1_2 >= -1025
t_2_2 - t_2_1 + 1024.000000 u_2_1_2 - 6.353174 s_2_1 + 6.353174 s_2_8 + 2048.000000 r_2_1_2 > 9.022083
s_1_2 + s_1_3 + 1024 r_1_2_3 >= 2
- s_1_2 - s_1_3 - 1024 r_1_2_3 >= -1025
t_1_2 - t_1_3 - 1024.000000 u_1_2_3 - 9.371286 s_1_3 + 9.371286 s_1_8 + 2048.000000 r_1_2_3 > -1022.340833
s_2_2 + s_2_3 + 1024 r_2_2_3 >= 2
- s_2_2 - s_2_3 - 1024 r_2_2_3 >= -1025
t_2_2 - t_2_3 - 1024.000000 u_2_2_3 - 9.529761 s_2_3 + 9.529761 s_2_8 + 2048.000000 r_2_2_3 > -1022.091633
s_1_2 + s_1_4 + 1024 r_1_2_4 >= 2
- s_1_2 - s_1_4 - 1024 r_1_2_4 >= -1025
t_1_2 - t_1_4 - 1024.000000 u_1_2_4 - 6.247524 s_1_4 + 6.247524 s_1_7 + 2048.000000 r_1_2_4 > -1021.482950
s_2_2 + s_2_4 + 1024 r_2_2_4 >= 2
- s_2_2 - s_2_4 - 1024 r_2_2_4 >= -1025
t_2_2 - t_2_4 - 1024.000000 u_2_2_4 - 6.353174 s_2_4 + 6.353174 s_2_7 + 2048.000000 r_2_2_4 > -1021.107567
s_1_2 + s_1_5 + 1024 r_1_2_5 >= 2
- s_1_2 - s_1_5 - 1024 r_1_2_5 >= -1025
t_1_2 - t_1_5 - 1024.000000 u_1_2_5 - 9.371286 s_1_5 + 9.371286 s_1_8 + 2048.000000 r_1_2_5 > -1018.621800
s_2_2 + s_2_5 + 1024 r_2_2_5 >= 2
- s_2_2 - s_2_5 - 1024 r_2_2_5 >= -1025
t_2_2 - t_2_5 - 1024.000000 u_2_2_5 - 9.529761 s_2_5 + 9.529761 s_2_8 + 2048.000000 r_2_2_5 > -1019.371867
t_1_6 - t_1_2 - 17.548246 s_1_2 + 6.247524 s_1_7 > 0.0
t_1_6 - t_2_2 - 15.576196 s_2_2 + 6.353174 s_2_7 > 0.0
t_2_6 - t_1_2 - 17.548246 s_1_2 + 6.247524 s_1_7 > 0.0
t_2_6 - t_2_2 - 15.576196 s_2_2 + 6.353174 s_2_7 > 0.0
t_1_2 - t_1_7 - 1024.000000 s_1_7 > -1008.725814
t_1_2 - t_2_7 - 1024.000000 s_2_7 > -1017.175367
t_2_2 - t_1_7 - 1024.000000 s_1_7 > -1008.725814
t_2_2 - t_2_7 - 1024.000000 s_2_7 > -1017.175367
s_1_2 + s_1_8 + 1024 r_1_2_8 >= 2
- s_1_2 - s_1_8 - 1024 r_1_2_8 >= -1025
t_1_2 - t_1_8 - 1024.000000 u_1_2_8 + 2048.000000 r_1_2_8 > -1009.034000
s_2_2 + s_2_8 + 1024 r_2_2_8 >= 2
- s_2_2 - s_2_8 - 1024 r_2_2_8 >= -1025
t_2_2 - t_2_8 - 1024.000000 u_2_2_8 + 2048.000000 r_2_2_8 > -1017.642300
s_1_3 + s_1_1 + 1024 r_1_1_3 >= 2
- s_1_3 - s_1_1 - 1024 r_1_1_3 >= -1025
t_1_3 - t_1_1 + 1024.000000 u_1_1_3 - 6.247524 s_1_1 + 6.247524 s_1_8 + 2048.000000 r_1_1_3 > 11.204200
s_2_3 + s_2_1 + 1024 r_2_1_3 >= 2
- s_2_3 - s_2_1 - 1024 r_2_1_3 >= -1025
t_2_3 - t_2_1 + 1024.000000 u_2_1_3 - 6.353174 s_2_1 + 6.353174 s_2_8 + 2048.000000 r_2_1_3 > 9.022083
s_1_3 + s_1_2 + 1024 r_1_2_3 >= 2
- s_1_3 - s_1_2 - 1024 r_1_2_3 >= -1025
t_1_3 - t_1_2 + 1024.000000 u_1_2_3 - 6.247524 s_1_2 + 6.247524 s_1_7 + 2048.000000 r_1_2_3 > 11.300722
s_2_3 + s_2_2 + 1024 r_2_2_3 >= 2
- s_2_3 - s_2_2 - 1024 r_2_2_3 >= -1025
t_2_3 - t_2_2 + 1024.000000 u_2_2_3 - 6.353174 s_2_2 + 6.353174 s_2_7 + 2048.000000 r_2_2_3 > 9.223022
s_1_3 + s_1_4 + 1024 r_1_3_4 >= 2
- s_1_3 - s_1_4 - 1024 r_1_3_4 >= -1025
t_1_3 - t_1_4 - 1024.000000 u_1_3_4 - 6.247524 s_1_4 + 6.247524 s_1_7 + 2048.000000 r_1_3_4 > -1021.482950
s_2_3 + s_2_4 + 1024 r_2_3_4 >= 2
- s_2_3 - s_2_4 - 1024 r_2_3_4 >= -1025
t_2_3 - t_2_4 - 1024.000000 u_2_3_4 - 6.353174 s_2_4 + 6.353174 s_2_7 + 2048.000000 r_2_3_4 > -1021.107567
s_1_3 + s_1_5 + 1024 r_1_3_5 >= 2
- s_1_3 - s_1_5 - 1024 r_1_3_5 >= -1025
t_1_3 - t_1_5 - 1024.000000 u_1_3_5 - 9.371286 s_1_5 + 9.371286 s_1_8 + 2048.000000 r_1_3_5 > -1018.621800
s_2_3 + s_2_5 + 1024 r_2_3_5 >= 2
- s_2_3 - s_2_5 - 1024 r_2_3_5 >= -1025
t_2_3 - t_2_5 - 1024.000000 u_2_3_5 - 9.529761 s_2_5 + 9.529761 s_2_8 + 2048.000000 r_2_3_5 > -1019.371867
t_1_6 - t_1_3 - 11.030452 s_1_3 + 9.371286 s_1_8 > 0.0
t_1_6 - t_2_3 - 11.438128 s_2_3 + 9.529761 s_2_8 > 0.0
t_2_6 - t_1_3 - 11.030452 s_1_3 + 9.371286 s_1_8 > 0.0
t_2_6 - t_2_3 - 11.438128 s_2_3 + 9.529761 s_2_8 > 0.0
t_1_3 - t_1_7 - 1024.000000 s_1_7 > -1008.725814
t_1_3 - t_2_7 - 1024.000000 s_2_7 > -1017.175367
t_2_3 - t_1_7 - 1024.000000 s_1_7 > -1008.725814
t_2_3 - t_2_7 - 1024.000000 s_2_7 > -1017.175367
t_1_3 - t_1_8 - 1024.000000 s_1_8 > -1009.034000
t_1_3 - t_2_8 - 1024.000000 s_2_8 > -1017.642300
t_2_3 - t_1_8 - 1024.000000 s_1_8 > -1009.034000
t_2_3 - t_2_8 - 1024.000000 s_2_8 > -1017.642300
s_1_4 + s_1_1 + 1024 r_1_1_4 >= 2
- s_1_4 - s_1_1 - 1024 r_1_1_4 >= -1025
t_1_4 - t_1_1 + 1024.000000 u_1_1_4 - 6.247524 s_1_1 + 6.247524 s_1_8 + 2048.000000 r_1_1_4 > 11.204200
s_2_4 + s_2_1 + 1024 r_2_1_4 >= 2
- s_2_4 - s_2_1 - 1024 r_2_1_4 >= -1025
t_2_4 - t_2_1 + 1024.000000 u_2_1_4 - 6.353174 s_2_1 + 6.353174 s_2_8 + 2048.000000 r_2_1_4 > 9.022083
s_1_4 + s_1_2 + 1024 r_1_2_4 >= 2
- s_1_4 - s_1_2 - 1024 r_1_2_4 >= -1025
t_1_4 - t_1_2 + 1024.000000 u_1_2_4 - 6.247524 s_1_2 + 6.247524 s_1_7 + 2048.000000 r_1_2_4 > 11.300722
s_2_4 + s_2_2 + 1024 r_2_2_4 >= 2
- s_2_4 - s_2_2 - 1024 r_2_2_4 >= -1025
t_2_4 - t_2_2 + 1024.000000 u_2_2_4 - 6.353174 s_2_2 + 6.353174 s_2_7 + 2048.000000 r_2_2_4 > 9.223022
s_1_4 + s_1_3 + 1024 r_1_3_4 >= 2
- s_1_4 - s_1_3 - 1024 r_1_3_4 >= -1025
t_1_4 - t_1_3 + 1024.000000 u_1_3_4 - 9.371286 s_1_3 + 9.371286 s_1_8 + 2048.000000 r_1_3_4 > 1.659167
s_2_4 + s_2_3 + 1024 r_2_3_4 >= 2
- s_2_4 - s_2_3 - 1024 r_2_3_4 >= -1025
t_2_4 - t_2_3 + 1024.000000 u_2_3_4 - 9.529761 s_2_3 + 9.529761 s_2_8 + 2048.000000 r_2_3_4 > 1.908367
s_1_4 + s_1_5 + 1024 r_1_4_5 >= 2
- s_1_4 - s_1_5 - 1024 r_1_4_5 >= -1025
t_1_4 - t_1_5 - 1024.000000 u_1_4_5 - 9.371286 s_1_5 + 9.371286 s_1_8 + 2048.000000 r_1_4_5 > -1018.621800
s_2_4 + s_2_5 + 1024 r_2_4_5 >= 2
- s_2_4 - s_2_5 - 1024 r_2_4_5 >= -1025
t_2_4 - t_2_5 - 1024.000000 u_2_4_5 - 9.529761 s_2_5 + 9.529761 s_2_8 + 2048.000000 r_2_4_5 > -1019.371867
t_1_6 - t_1_4 - 8.764574 s_1_4 + 6.247524 s_1_7 > 0.0
t_1_6 - t_2_4 - 9.245607 s_2_4 + 6.353174 s_2_7 > 0.0
t_2_6 - t_1_4 - 8.764574 s_1_4 + 6.247524 s_1_7 > 0.0
t_2_6 - t_2_4 - 9.245607 s_2_4 + 6.353174 s_2_7 > 0.0
t_1_4 - t_1_7 - 1024.000000 s_1_7 > -1008.725814
t_1_4 - t_2_7 - 1024.000000 s_2_7 > -1017.175367
t_2_4 - t_1_7 - 1024.000000 s_1_7 > -1008.725814
t_2_4 - t_2_7 - 1024.000000 s_2_7 > -1017.175367
s_1_4 + s_1_8 + 1024 r_1_4_8 >= 2
- s_1_4 - s_1_8 - 1024 r_1_4_8 >= -1025
t_1_4 - t_1_8 - 1024.000000 u_1_4_8 + 2048.000000 r_1_4_8 > -1009.034000
s_2_4 + s_2_8 + 1024 r_2_4_8 >= 2
- s_2_4 - s_2_8 - 1024 r_2_4_8 >= -1025
t_2_4 - t_2_8 - 1024.000000 u_2_4_8 + 2048.000000 r_2_4_8 > -1017.642300
s_1_5 + s_1_1 + 1024 r_1_1_5 >= 2
- s_1_5 - s_1_1 - 1024 r_1_1_5 >= -1025
t_1_5 - t_1_1 + 1024.000000 u_1_1_5 - 6.247524 s_1_1 + 6.247524 s_1_8 + 2048.000000 r_1_1_5 > 11.204200
s_2_5 + s_2_1 + 1024 r_2_1_5 >= 2
- s_2_5 - s_2_1 - 1024 r_2_1_5 >= -1025
t_2_5 - t_2_1 + 1024.000000 u_2_1_5 - 6.353174 s_2_1 + 6.353174 s_2_8 + 2048.000000 r_2_1_5 > 9.022083
s_1_5 + s_1_2 + 1024 r_1_2_5 >= 2
- s_1_5 - s_1_2 - 1024 r_1_2_5 >= -1025
t_1_5 - t_1_2 + 1024.000000 u_1_2_5 - 6.247524 s_1_2 + 6.247524 s_1_7 + 2048.000000 r_1_2_5 > 11.300722
s_2_5 + s_2_2 + 1024 r_2_2_5 >= 2
- s_2_5 - s_2_2 - 1024 r_2_2_5 >= -1025
t_2_5 - t_2_2 + 1024.000000 u_2_2_5 - 6.353174 s_2_2 + 6.353174 s_2_7 + 2048.000000 r_2_2_5 > 9.223022
s_1_5 + s_1_3 + 1024 r_1_3_5 >= 2
- s_1_5 - s_1_3 - 1024 r_1_3_5 >= -1025
t_1_5 - t_1_3 + 1024.000000 u_1_3_5 - 9.371286 s_1_3 + 9.371286 s_1_8 + 2048.000000 r_1_3_5 > 1.659167
s_2_5 + s_2_3 + 1024 r_2_3_5 >= 2
- s_2_5 - s_2_3 - 1024 r_2_3_5 >= -1025
t_2_5 - t_2_3 + 1024.000000 u_2_3_5 - 9.529761 s_2_3 + 9.529761 s_2_8 + 2048.000000 r_2_3_5 > 1.908367
s_1_5 + s_1_4 + 1024 r_1_4_5 >= 2
- s_1_5 - s_1_4 - 1024 r_1_4_5 >= -1025
t_1_5 - t_1_4 + 1024.000000 u_1_4_5 - 6.247524 s_1_4 + 6.247524 s_1_7 + 2048.000000 r_1_4_5 > 2.517050
s_2_5 + s_2_4 + 1024 r_2_4_5 >= 2
- s_2_5 - s_2_4 - 1024 r_2_4_5 >= -1025
t_2_5 - t_2_4 + 1024.000000 u_2_4_5 - 6.353174 s_2_4 + 6.353174 s_2_7 + 2048.000000 r_2_4_5 > 2.892433
t_1_6 - t_1_5 - 14.749486 s_1_5 + 9.371286 s_1_8 > 0.0
t_1_6 - t_2_5 - 14.157894 s_2_5 + 9.529761 s_2_8 > 0.0
t_2_6 - t_1_5 - 14.749486 s_1_5 + 9.371286 s_1_8 > 0.0
t_2_6 - t_2_5 - 14.157894 s_2_5 + 9.529761 s_2_8 > 0.0
s_1_5 + s_1_7 + 1024 r_1_5_7 >= 2
- s_1_5 - s_1_7 - 1024 r_1_5_7 >= -1025
t_1_5 - t_1_7 - 1024.000000 u_1_5_7 + 2048.000000 r_1_5_7 > -1008.725814
s_2_5 + s_2_7 + 1024 r_2_5_7 >= 2
- s_2_5 - s_2_7 - 1024 r_2_5_7 >= -1025
t_2_5 - t_2_7 - 1024.000000 u_2_5_7 + 2048.000000 r_2_5_7 > -1017.175367
t_1_5 - t_1_8 - 1024.000000 s_1_8 > -1009.034000
t_1_5 - t_2_8 - 1024.000000 s_2_8 > -1017.642300
t_2_5 - t_1_8 - 1024.000000 s_1_8 > -1009.034000
t_2_5 - t_2_8 - 1024.000000 s_2_8 > -1017.642300
t_1_6 - t_1_7 - 1024.000000 s_1_7 > -1008.725814
t_1_6 - t_2_7 - 1024.000000 s_2_7 > -1017.175367
t_2_6 - t_1_7 - 1024.000000 s_1_7 > -1008.725814
t_2_6 - t_2_7 - 1024.000000 s_2_7 > -1017.175367
s_1_7 + s_1_5 + 1024 r_1_5_7 >= 2
- s_1_7 - s_1_5 - 1024 r_1_5_7 >= -1025
t_1_7 - t_1_5 + 1024.000000 u_1_5_7 - 9.371286 s_1_5 + 9.371286 s_1_8 + 2048.000000 r_1_5_7 > 5.378200
s_2_7 + s_2_5 + 1024 r_2_5_7 >= 2
- s_2_7 - s_2_5 - 1024 r_2_5_7 >= -1025
t_2_7 - t_2_5 + 1024.000000 u_2_5_7 - 9.529761 s_2_5 + 9.529761 s_2_8 + 2048.000000 r_2_5_7 > 4.628133
s_1_7 + s_1_8 + 1024 r_1_7_8 >= 2
- s_1_7 - s_1_8 - 1024 r_1_7_8 >= -1025
t_1_7 - t_1_8 - 1024.000000 u_1_7_8 + 2048.000000 r_1_7_8 > -1009.034000
s_2_7 + s_2_8 + 1024 r_2_7_8 >= 2
- s_2_7 - s_2_8 - 1024 r_2_7_8 >= -1025
t_2_7 - t_2_8 - 1024.000000 u_2_7_8 + 2048.000000 r_2_7_8 > -1017.642300
s_1_8 + s_1_2 + 1024 r_1_2_8 >= 2
- s_1_8 - s_1_2 - 1024 r_1_2_8 >= -1025
t_1_8 - t_1_2 + 1024.000000 u_1_2_8 - 6.247524 s_1_2 + 6.247524 s_1_7 + 2048.000000 r_1_2_8 > 11.300722
s_2_8 + s_2_2 + 1024 r_2_2_8 >= 2
- s_2_8 - s_2_2 - 1024 r_2_2_8 >= -1025
t_2_8 - t_2_2 + 1024.000000 u_2_2_8 - 6.353174 s_2_2 + 6.353174 s_2_7 + 2048.000000 r_2_2_8 > 9.223022
s_1_8 + s_1_4 + 1024 r_1_4_8 >= 2
- s_1_8 - s_1_4 - 1024 r_1_4_8 >= -1025
t_1_8 - t_1_4 + 1024.000000 u_1_4_8 - 6.247524 s_1_4 + 6.247524 s_1_7 + 2048.000000 r_1_4_8 > 2.517050
s_2_8 + s_2_4 + 1024 r_2_4_8 >= 2
- s_2_8 - s_2_4 - 1024 r_2_4_8 >= -1025
t_2_8 - t_2_4 + 1024.000000 u_2_4_8 - 6.353174 s_2_4 + 6.353174 s_2_7 + 2048.000000 r_2_4_8 > 2.892433
s_1_8 + s_1_7 + 1024 r_1_7_8 >= 2
- s_1_8 - s_1_7 - 1024 r_1_7_8 >= -1025
t_1_8 - t_1_7 + 1024.000000 u_1_7_8 + 2048.000000 r_1_7_8 > 15.274186
s_2_8 + s_2_7 + 1024 r_2_7_8 >= 2
- s_2_8 - s_2_7 - 1024 r_2_7_8 >= -1025
t_2_8 - t_2_7 + 1024.000000 u_2_7_8 + 2048.000000 r_2_7_8 > 6.824633
Binary
s_1_1
s_2_1
s_1_2
s_2_2
s_1_3
s_2_3
s_1_4
s_2_4
s_1_5
s_2_5
s_1_6
s_2_6
s_1_7
s_2_7
s_1_8
s_2_8
u_1_1_2
r_1_1_2
u_2_1_2
r_2_1_2
u_1_1_3
r_1_1_3
u_2_1_3
r_2_1_3
u_1_1_4
r_1_1_4
u_2_1_4
r_2_1_4
u_1_1_5
r_1_1_5
u_2_1_5
r_2_1_5
u_1_2_3
r_1_2_3
u_2_2_3
r_2_2_3
u_1_2_4
r_1_2_4
u_2_2_4
r_2_2_4
u_1_2_5
r_1_2_5
u_2_2_5
r_2_2_5
u_1_2_8
r_1_2_8
u_2_2_8
r_2_2_8
u_1_3_4
r_1_3_4
u_2_3_4
r_2_3_4
u_1_3_5
r_1_3_5
u_2_3_5
r_2_3_5
u_1_4_5
r_1_4_5
u_2_4_5
r_2_4_5
u_1_4_8
r_1_4_8
u_2_4_8
r_2_4_8
u_1_5_7
r_1_5_7
u_2_5_7
r_2_5_7
u_1_7_8
r_1_7_8
u_2_7_8
r_2_7_8

End
